Ni2MnIn                                 
   5.7599999999999998     
     1.0344257457650112    0.0000000000000000    0.0000000000000000
     0.0000000000000000    1.0344257457650112    0.0000000000000000
     0.0000000000000000    0.0000000000000000    1.0344257457650112
   Ni   Mn   In
     8     6     2
Direct
  0.2465223906369900  0.2465223906369900  0.2538974953641215
  0.7534776093630100  0.2465223906369900  0.2538974953641215
  0.2465223906369900  0.7534776093630100  0.2538974953641215
  0.7534776093630100  0.7534776093630100  0.2538974953641215
  0.2465223906369900  0.2465223906369900  0.7461025046358785
  0.7534776093630100  0.2465223906369900  0.7461025046358785
  0.2465223906369900  0.7534776093630100  0.7461025046358785
  0.7534776093630100  0.7534776093630100  0.7461025046358785
  0.5000000000000000  0.0000000000000000  0.0000000000000000
  0.5000000000000000  0.5000000000000000  0.0000000000000000
  0.0000000000000000  0.5000000000000000  0.0000000000000000
  0.0000000000000000  0.0000000000000000  0.5000000000000000
  0.5000000000000000  0.0000000000000000  0.5000000000000000
  0.0000000000000000  0.5000000000000000  0.5000000000000000
  0.0000000000000000  0.0000000000000000  0.0000000000000000
  0.5000000000000000  0.5000000000000000  0.5000000000000000

  0.00000000E+00  0.00000000E+00  0.00000000E+00
  0.00000000E+00  0.00000000E+00  0.00000000E+00
  0.00000000E+00  0.00000000E+00  0.00000000E+00
  0.00000000E+00  0.00000000E+00  0.00000000E+00
  0.00000000E+00  0.00000000E+00  0.00000000E+00
  0.00000000E+00  0.00000000E+00  0.00000000E+00
  0.00000000E+00  0.00000000E+00  0.00000000E+00
  0.00000000E+00  0.00000000E+00  0.00000000E+00
  0.00000000E+00  0.00000000E+00  0.00000000E+00
  0.00000000E+00  0.00000000E+00  0.00000000E+00
  0.00000000E+00  0.00000000E+00  0.00000000E+00
  0.00000000E+00  0.00000000E+00  0.00000000E+00
  0.00000000E+00  0.00000000E+00  0.00000000E+00
  0.00000000E+00  0.00000000E+00  0.00000000E+00
  0.00000000E+00  0.00000000E+00  0.00000000E+00
  0.00000000E+00  0.00000000E+00  0.00000000E+00
