Ni2MnIn                                 
   5.7599999999999998     
     1.0355750059594249    0.0000000000000000    0.0000000000000000
     0.0000000000000000    1.0355750059594249    0.0000000000000000
     0.0000000000000000    0.0000000000000000    1.0355750059594249
   Ni   Mn   In
     8     6     2
Direct
  0.2501394833286058  0.2498605166713942  0.2686689289643090
  0.7498605166713942  0.2498605166713942  0.2686689289643090
  0.2501394833286058  0.7501394833286058  0.2686689289643090
  0.7498605166713942  0.7501394833286058  0.2686689289643090
  0.2501394833286058  0.2498605166713942  0.7313310710356911
  0.7498605166713942  0.2498605166713942  0.7313310710356911
  0.2501394833286058  0.7501394833286058  0.7313310710356911
  0.7498605166713942  0.7501394833286058  0.7313310710356911
  0.5000000000000000  0.0000000000000000  0.0000000000000000
  0.0000000000000000  0.5000000000000000  0.0000000000000000
  0.0000000000000000  0.0000000000000000  0.5000000000000000
  0.5000000000000000  0.0000000000000000  0.5000000000000000
  0.5000000000000000  0.5000000000000000  0.5000000000000000
  0.0000000000000000  0.5000000000000000  0.5000000000000000
  0.0000000000000000  0.0000000000000000  0.0000000000000000
  0.5000000000000000  0.5000000000000000  0.0000000000000000

  0.00000000E+00  0.00000000E+00  0.00000000E+00
  0.00000000E+00  0.00000000E+00  0.00000000E+00
  0.00000000E+00  0.00000000E+00  0.00000000E+00
  0.00000000E+00  0.00000000E+00  0.00000000E+00
  0.00000000E+00  0.00000000E+00  0.00000000E+00
  0.00000000E+00  0.00000000E+00  0.00000000E+00
  0.00000000E+00  0.00000000E+00  0.00000000E+00
  0.00000000E+00  0.00000000E+00  0.00000000E+00
  0.00000000E+00  0.00000000E+00  0.00000000E+00
  0.00000000E+00  0.00000000E+00  0.00000000E+00
  0.00000000E+00  0.00000000E+00  0.00000000E+00
  0.00000000E+00  0.00000000E+00  0.00000000E+00
  0.00000000E+00  0.00000000E+00  0.00000000E+00
  0.00000000E+00  0.00000000E+00  0.00000000E+00
  0.00000000E+00  0.00000000E+00  0.00000000E+00
  0.00000000E+00  0.00000000E+00  0.00000000E+00
