Ni2MnIn                                 
   5.7599999999999998     
     1.0351965813898019    0.0000000000000000    0.0000000000000000
     0.0000000000000000    1.0351965813898019    0.0000000000000000
     0.0000000000000000    0.0000000000000000    1.0351965813898019
   Ni   Mn   In
     8     6     2
Direct
  0.2500709127373073  0.2500709127373073  0.2685166250593975
  0.7499290872626928  0.2500709127373073  0.2685166250593975
  0.2500709127373073  0.7499290872626928  0.2685166250593975
  0.7499290872626928  0.7499290872626928  0.2685166250593975
  0.2500709127373073  0.2500709127373073  0.7314833749406024
  0.7499290872626928  0.2500709127373073  0.7314833749406024
  0.2500709127373073  0.7499290872626928  0.7314833749406024
  0.7499290872626928  0.7499290872626928  0.7314833749406024
  0.5000000000000000 -0.0000000000000000  0.0000000000000000
 -0.0000000000000000  0.5000000000000000  0.0000000000000000
 -0.0000000000000000 -0.0000000000000000  0.5000000000000000
  0.5000000000000000 -0.0000000000000000  0.5000000000000000
  0.5000000000000000  0.5000000000000000  0.5000000000000000
 -0.0000000000000000  0.5000000000000000  0.5000000000000000
 -0.0000000000000000 -0.0000000000000000  0.0000000000000000
  0.5000000000000000  0.5000000000000000  0.0000000000000000

  0.00000000E+00  0.00000000E+00  0.00000000E+00
  0.00000000E+00  0.00000000E+00  0.00000000E+00
  0.00000000E+00  0.00000000E+00  0.00000000E+00
  0.00000000E+00  0.00000000E+00  0.00000000E+00
  0.00000000E+00  0.00000000E+00  0.00000000E+00
  0.00000000E+00  0.00000000E+00  0.00000000E+00
  0.00000000E+00  0.00000000E+00  0.00000000E+00
  0.00000000E+00  0.00000000E+00  0.00000000E+00
  0.00000000E+00  0.00000000E+00  0.00000000E+00
  0.00000000E+00  0.00000000E+00  0.00000000E+00
  0.00000000E+00  0.00000000E+00  0.00000000E+00
  0.00000000E+00  0.00000000E+00  0.00000000E+00
  0.00000000E+00  0.00000000E+00  0.00000000E+00
  0.00000000E+00  0.00000000E+00  0.00000000E+00
  0.00000000E+00  0.00000000E+00  0.00000000E+00
  0.00000000E+00  0.00000000E+00  0.00000000E+00
