Ni2MnIn                                 
   5.7599999999999998     
     1.0335185920643091    0.0000000000000000    0.0000000000000000
     0.0000000000000000    1.0335185920643091    0.0000000000000000
     0.0000000000000000    0.0000000000000000    1.0335185920643091
   Ni   Mn   In
     8     6     2
Direct
  0.2525582623016760  0.2525582623016760  0.2706368256233773
  0.7474417376983240  0.2525582623016760  0.2706368256233773
  0.2525582623016760  0.7474417376983240  0.2706368256233773
  0.7474417376983240  0.7474417376983240  0.2706368256233773
  0.2525582623016760  0.2525582623016760  0.7293631743766227
  0.7474417376983240  0.2525582623016760  0.7293631743766227
  0.2525582623016760  0.7474417376983240  0.7293631743766227
  0.7474417376983240  0.7474417376983240  0.7293631743766227
  0.5000000000000000  0.0000000000000000  0.0000000000000000
  0.0000000000000000  0.5000000000000000  0.0000000000000000
  0.0000000000000000  0.0000000000000000  0.5000000000000000
  0.5000000000000000  0.0000000000000000  0.5000000000000000
  0.5000000000000000  0.5000000000000000  0.5000000000000000
  0.0000000000000000  0.5000000000000000  0.5000000000000000
  0.0000000000000000  0.0000000000000000  0.0000000000000000
  0.5000000000000000  0.5000000000000000  0.0000000000000000

  0.00000000E+00  0.00000000E+00  0.00000000E+00
  0.00000000E+00  0.00000000E+00  0.00000000E+00
  0.00000000E+00  0.00000000E+00  0.00000000E+00
  0.00000000E+00  0.00000000E+00  0.00000000E+00
  0.00000000E+00  0.00000000E+00  0.00000000E+00
  0.00000000E+00  0.00000000E+00  0.00000000E+00
  0.00000000E+00  0.00000000E+00  0.00000000E+00
  0.00000000E+00  0.00000000E+00  0.00000000E+00
  0.00000000E+00  0.00000000E+00  0.00000000E+00
  0.00000000E+00  0.00000000E+00  0.00000000E+00
  0.00000000E+00  0.00000000E+00  0.00000000E+00
  0.00000000E+00  0.00000000E+00  0.00000000E+00
  0.00000000E+00  0.00000000E+00  0.00000000E+00
  0.00000000E+00  0.00000000E+00  0.00000000E+00
  0.00000000E+00  0.00000000E+00  0.00000000E+00
  0.00000000E+00  0.00000000E+00  0.00000000E+00
