Ni2MnIn                                 
   5.7599999999999998     
     1.0362553870744156    0.0000000000000000    0.0000000000000000
     0.0000000000000000    1.0362553870744156    0.0000000000000000
     0.0000000000000000    0.0000000000000000    1.0362553870744156
   Ni   Mn   In
     8     6     2
Direct
  0.2495032368790575  0.2495032368790575  0.2536181713023424
  0.7504967631209425  0.2495032368790575  0.2536181713023424
  0.2495032368790575  0.7504967631209425  0.2536181713023424
  0.7504967631209425  0.7504967631209425  0.2536181713023424
  0.2495032368790575  0.2495032368790575  0.7463818286976576
  0.7504967631209425  0.2495032368790575  0.7463818286976576
  0.2495032368790575  0.7504967631209425  0.7463818286976576
  0.7504967631209425  0.7504967631209425  0.7463818286976576
  0.5000000000000000  0.0000000000000000  0.0000000000000000
  0.5000000000000000  0.5000000000000000  0.0000000000000000
  0.0000000000000000  0.5000000000000000  0.0000000000000000
  0.0000000000000000  0.0000000000000000  0.5000000000000000
  0.5000000000000000  0.0000000000000000  0.5000000000000000
  0.0000000000000000  0.5000000000000000  0.5000000000000000
  0.0000000000000000  0.0000000000000000  0.0000000000000000
  0.5000000000000000  0.5000000000000000  0.5000000000000000

  0.00000000E+00  0.00000000E+00  0.00000000E+00
  0.00000000E+00  0.00000000E+00  0.00000000E+00
  0.00000000E+00  0.00000000E+00  0.00000000E+00
  0.00000000E+00  0.00000000E+00  0.00000000E+00
  0.00000000E+00  0.00000000E+00  0.00000000E+00
  0.00000000E+00  0.00000000E+00  0.00000000E+00
  0.00000000E+00  0.00000000E+00  0.00000000E+00
  0.00000000E+00  0.00000000E+00  0.00000000E+00
  0.00000000E+00  0.00000000E+00  0.00000000E+00
  0.00000000E+00  0.00000000E+00  0.00000000E+00
  0.00000000E+00  0.00000000E+00  0.00000000E+00
  0.00000000E+00  0.00000000E+00  0.00000000E+00
  0.00000000E+00  0.00000000E+00  0.00000000E+00
  0.00000000E+00  0.00000000E+00  0.00000000E+00
  0.00000000E+00  0.00000000E+00  0.00000000E+00
  0.00000000E+00  0.00000000E+00  0.00000000E+00
