Ni2MnIn                                 
   5.7599999999999998     
     1.0384287775736070    0.0000000000000000    0.0000000000000000
     0.0000000000000000    1.0384287775736070    0.0000000000000000
     0.0000000000000000    0.0000000000000000    1.0384287775736070
   Ni   Mn   In
     8     6     2
Direct
  0.2500000000000000  0.2651006714184660  0.2651006714184660
  0.7500000000000000  0.2651006714184660  0.2651006714184660
  0.2500000000000000  0.7348993285815340  0.2651006714184660
  0.7500000000000000  0.7348993285815340  0.2651006714184660
  0.2500000000000000  0.2651006714184660  0.7348993285815340
  0.7500000000000000  0.2651006714184660  0.7348993285815340
  0.2500000000000000  0.7348993285815340  0.7348993285815340
  0.7500000000000000  0.7348993285815340  0.7348993285815340
  0.5000000000000000  0.5000000000000000  0.0000000000000000
  0.0000000000000000  0.5000000000000000  0.0000000000000000
  0.0000000000000000  0.0000000000000000  0.5000000000000000
  0.5000000000000000  0.0000000000000000  0.5000000000000000
  0.5000000000000000  0.5000000000000000  0.5000000000000000
  0.0000000000000000  0.5000000000000000  0.5000000000000000
  0.0000000000000000  0.0000000000000000  0.0000000000000000
  0.5000000000000000  0.0000000000000000  0.0000000000000000

  0.00000000E+00  0.00000000E+00  0.00000000E+00
  0.00000000E+00  0.00000000E+00  0.00000000E+00
  0.00000000E+00  0.00000000E+00  0.00000000E+00
  0.00000000E+00  0.00000000E+00  0.00000000E+00
  0.00000000E+00  0.00000000E+00  0.00000000E+00
  0.00000000E+00  0.00000000E+00  0.00000000E+00
  0.00000000E+00  0.00000000E+00  0.00000000E+00
  0.00000000E+00  0.00000000E+00  0.00000000E+00
  0.00000000E+00  0.00000000E+00  0.00000000E+00
  0.00000000E+00  0.00000000E+00  0.00000000E+00
  0.00000000E+00  0.00000000E+00  0.00000000E+00
  0.00000000E+00  0.00000000E+00  0.00000000E+00
  0.00000000E+00  0.00000000E+00  0.00000000E+00
  0.00000000E+00  0.00000000E+00  0.00000000E+00
  0.00000000E+00  0.00000000E+00  0.00000000E+00
  0.00000000E+00  0.00000000E+00  0.00000000E+00
