Ni2MnIn                                 
   5.7599999999999998     
     1.0335405379129265    0.0000000000000000    0.0000000000000000
     0.0000000000000000    1.0335405379129265    0.0000000000000000
     0.0000000000000000    0.0000000000000000    1.0335405379129265
   Ni   Mn   In
     8     6     2
Direct
  0.2525818198759550  0.2525818198759550  0.2707298716227118
  0.7474181801240449  0.2525818198759550  0.2707298716227118
  0.2525818198759550  0.7474181801240449  0.2707298716227118
  0.7474181801240449  0.7474181801240449  0.2707298716227118
  0.2525818198759550  0.2525818198759550  0.7292701283772882
  0.7474181801240449  0.2525818198759550  0.7292701283772882
  0.2525818198759550  0.7474181801240449  0.7292701283772882
  0.7474181801240449  0.7474181801240449  0.7292701283772882
  0.5000000000000000  0.0000000000000000  0.0000000000000000
  0.0000000000000000  0.5000000000000000  0.0000000000000000
  0.0000000000000000  0.0000000000000000  0.5000000000000000
  0.5000000000000000  0.0000000000000000  0.5000000000000000
  0.5000000000000000  0.5000000000000000  0.5000000000000000
  0.0000000000000000  0.5000000000000000  0.5000000000000000
  0.0000000000000000  0.0000000000000000  0.0000000000000000
  0.5000000000000000  0.5000000000000000  0.0000000000000000

  0.00000000E+00  0.00000000E+00  0.00000000E+00
  0.00000000E+00  0.00000000E+00  0.00000000E+00
  0.00000000E+00  0.00000000E+00  0.00000000E+00
  0.00000000E+00  0.00000000E+00  0.00000000E+00
  0.00000000E+00  0.00000000E+00  0.00000000E+00
  0.00000000E+00  0.00000000E+00  0.00000000E+00
  0.00000000E+00  0.00000000E+00  0.00000000E+00
  0.00000000E+00  0.00000000E+00  0.00000000E+00
  0.00000000E+00  0.00000000E+00  0.00000000E+00
  0.00000000E+00  0.00000000E+00  0.00000000E+00
  0.00000000E+00  0.00000000E+00  0.00000000E+00
  0.00000000E+00  0.00000000E+00  0.00000000E+00
  0.00000000E+00  0.00000000E+00  0.00000000E+00
  0.00000000E+00  0.00000000E+00  0.00000000E+00
  0.00000000E+00  0.00000000E+00  0.00000000E+00
  0.00000000E+00  0.00000000E+00  0.00000000E+00
