Ni2MnIn                                 
   5.7599999999999998     
     1.0358863797830096    0.0000000000000000    0.0000000000000000
     0.0000000000000000    1.0358863797830096    0.0000000000000000
     0.0000000000000000    0.0000000000000000    1.0358863797830096
   Ni   Mn   In
     8     6     2
Direct
  0.2499999806152502  0.2680750786467598  0.2680750786467598
  0.7500000193847498  0.2680750786467598  0.2680750786467598
  0.2499999806152502  0.7319249213532402  0.2680750786467598
  0.7500000193847498  0.7319249213532402  0.2680750786467598
  0.2499999806152502  0.2680750786467598  0.7319249213532402
  0.7500000193847498  0.2680750786467598  0.7319249213532402
  0.2499999806152502  0.7319249213532402  0.7319249213532402
  0.7500000193847498  0.7319249213532402  0.7319249213532402
  0.5000000000000000  0.5000000000000000  0.0000000000000000
  0.0000000000000000  0.5000000000000000  0.0000000000000000
  0.0000000000000000  0.0000000000000000  0.5000000000000000
  0.5000000000000000  0.0000000000000000  0.5000000000000000
  0.5000000000000000  0.5000000000000000  0.5000000000000000
  0.0000000000000000  0.5000000000000000  0.5000000000000000
  0.0000000000000000  0.0000000000000000  0.0000000000000000
  0.5000000000000000  0.0000000000000000  0.0000000000000000

  0.00000000E+00  0.00000000E+00  0.00000000E+00
  0.00000000E+00  0.00000000E+00  0.00000000E+00
  0.00000000E+00  0.00000000E+00  0.00000000E+00
  0.00000000E+00  0.00000000E+00  0.00000000E+00
  0.00000000E+00  0.00000000E+00  0.00000000E+00
  0.00000000E+00  0.00000000E+00  0.00000000E+00
  0.00000000E+00  0.00000000E+00  0.00000000E+00
  0.00000000E+00  0.00000000E+00  0.00000000E+00
  0.00000000E+00  0.00000000E+00  0.00000000E+00
  0.00000000E+00  0.00000000E+00  0.00000000E+00
  0.00000000E+00  0.00000000E+00  0.00000000E+00
  0.00000000E+00  0.00000000E+00  0.00000000E+00
  0.00000000E+00  0.00000000E+00  0.00000000E+00
  0.00000000E+00  0.00000000E+00  0.00000000E+00
  0.00000000E+00  0.00000000E+00  0.00000000E+00
  0.00000000E+00  0.00000000E+00  0.00000000E+00
