Ni2MnIn                                 
   5.7599999999999998     
     1.0357585138783736    0.0000000000000000    0.0000000000000000
     0.0000000000000000    1.0357585138783736    0.0000000000000000
     0.0000000000000000    0.0000000000000000    1.0357585138783736
   Ni   Mn   In
     8     6     2
Direct
  0.2500161816003452  0.2659189473425730  0.2659203496118476
  0.7499838183996548  0.2659189473425730  0.2659203496118476
  0.2500161816003452  0.7340810526574270  0.2659203496118476
  0.7499838183996548  0.7340810526574270  0.2659203496118476
  0.2500161816003452  0.2659189473425730  0.7340796503881525
  0.7499838183996548  0.2659189473425730  0.7340796503881525
  0.2500161816003452  0.7340810526574270  0.7340796503881525
  0.7499838183996548  0.7340810526574270  0.7340796503881525
  0.5000000000000000  0.5000000000000000  0.0000000000000000
  0.0000000000000000  0.5000000000000000  0.0000000000000000
  0.0000000000000000  0.0000000000000000  0.5000000000000000
  0.5000000000000000  0.0000000000000000  0.5000000000000000
  0.5000000000000000  0.5000000000000000  0.5000000000000000
  0.0000000000000000  0.5000000000000000  0.5000000000000000
  0.0000000000000000  0.0000000000000000  0.0000000000000000
  0.5000000000000000  0.0000000000000000  0.0000000000000000

  0.00000000E+00  0.00000000E+00  0.00000000E+00
  0.00000000E+00  0.00000000E+00  0.00000000E+00
  0.00000000E+00  0.00000000E+00  0.00000000E+00
  0.00000000E+00  0.00000000E+00  0.00000000E+00
  0.00000000E+00  0.00000000E+00  0.00000000E+00
  0.00000000E+00  0.00000000E+00  0.00000000E+00
  0.00000000E+00  0.00000000E+00  0.00000000E+00
  0.00000000E+00  0.00000000E+00  0.00000000E+00
  0.00000000E+00  0.00000000E+00  0.00000000E+00
  0.00000000E+00  0.00000000E+00  0.00000000E+00
  0.00000000E+00  0.00000000E+00  0.00000000E+00
  0.00000000E+00  0.00000000E+00  0.00000000E+00
  0.00000000E+00  0.00000000E+00  0.00000000E+00
  0.00000000E+00  0.00000000E+00  0.00000000E+00
  0.00000000E+00  0.00000000E+00  0.00000000E+00
  0.00000000E+00  0.00000000E+00  0.00000000E+00
