Ni2MnIn
6.01
    1   0   0
    0   1   0
    0   0   1
Ni Mn In
8  4  4
Direct
0.25  0.25  0.75 Ni
0.25  0.75  0.75 Ni
0.75  0.25  0.75 Ni
0.75  0.75  0.75 Ni
0.25  0.25  0.75 Ni
0.25  0.75  0.75 Ni
0.75  0.25  0.75 Ni
0.75  0.75  0.75 Ni
0.0   0.0   0.0  Mn In
0.0   0.5   0.0  Mn In
0.5   0.0   0.0  Mn In
0.5   0.5   0.0  Mn In
0.0   0.0   0.5  Mn In
0.0   0.5   0.5  Mn In
0.5   0.0   0.5  Mn In
0.5   0.5   0.5  Mn In