Ni2MnIn                                 
   5.7599999999999998     
     1.0359894945551960    0.0000000000000000    0.0000000000000000
     0.0000000000000000    1.0359894945551960    0.0000000000000000
     0.0000000000000000    0.0000000000000000    1.0359894945551960
   Ni   Mn   In
     8     6     2
Direct
  0.2506786448597182  0.2680170189783198  0.2652460279305018
  0.7493213551402818  0.2680170189783198  0.2652460279305018
  0.2506786448597182  0.7319829810216802  0.2652460279305018
  0.7493213551402818  0.7319829810216802  0.2652460279305018
  0.2506786448597182  0.2680170189783198  0.7347539720694982
  0.7493213551402818  0.2680170189783198  0.7347539720694982
  0.2506786448597182  0.7319829810216802  0.7347539720694982
  0.7493213551402818  0.7319829810216802  0.7347539720694982
  0.5000000000000000  0.5000000000000000  0.0000000000000000
  0.0000000000000000  0.5000000000000000  0.0000000000000000
  0.0000000000000000  0.0000000000000000  0.5000000000000000
  0.5000000000000000  0.0000000000000000  0.5000000000000000
  0.5000000000000000  0.5000000000000000  0.5000000000000000
  0.0000000000000000  0.5000000000000000  0.5000000000000000
  0.0000000000000000  0.0000000000000000  0.0000000000000000
  0.5000000000000000  0.0000000000000000  0.0000000000000000

  0.00000000E+00  0.00000000E+00  0.00000000E+00
  0.00000000E+00  0.00000000E+00  0.00000000E+00
  0.00000000E+00  0.00000000E+00  0.00000000E+00
  0.00000000E+00  0.00000000E+00  0.00000000E+00
  0.00000000E+00  0.00000000E+00  0.00000000E+00
  0.00000000E+00  0.00000000E+00  0.00000000E+00
  0.00000000E+00  0.00000000E+00  0.00000000E+00
  0.00000000E+00  0.00000000E+00  0.00000000E+00
  0.00000000E+00  0.00000000E+00  0.00000000E+00
  0.00000000E+00  0.00000000E+00  0.00000000E+00
  0.00000000E+00  0.00000000E+00  0.00000000E+00
  0.00000000E+00  0.00000000E+00  0.00000000E+00
  0.00000000E+00  0.00000000E+00  0.00000000E+00
  0.00000000E+00  0.00000000E+00  0.00000000E+00
  0.00000000E+00  0.00000000E+00  0.00000000E+00
  0.00000000E+00  0.00000000E+00  0.00000000E+00
