Ni2MnIn                                 
   5.7599999999999998     
     1.0354438217829214    0.0000000000000000    0.0000000000000000
     0.0000000000000000    1.0354438217829214    0.0000000000000000
     0.0000000000000000    0.0000000000000000    1.0354438217829214
   Ni   Mn   In
     8     6     2
Direct
  0.2526456967347235  0.2666847697894345  0.2666847697894345
  0.7473543032652764  0.2666847697894345  0.2666847697894345
  0.2526456967347235  0.7333152302105655  0.2666847697894345
  0.7473543032652764  0.7333152302105655  0.2666847697894345
  0.2526456967347235  0.2666847697894345  0.7333152302105655
  0.7473543032652764  0.2666847697894345  0.7333152302105655
  0.2526456967347235  0.7333152302105655  0.7333152302105655
  0.7473543032652764  0.7333152302105655  0.7333152302105655
  0.5000000000000000  0.5000000000000000  0.0000000000000000
 -0.0000000000000000  0.5000000000000000  0.0000000000000000
 -0.0000000000000000  0.0000000000000000  0.5000000000000000
  0.5000000000000000  0.0000000000000000  0.5000000000000000
  0.5000000000000000  0.5000000000000000  0.5000000000000000
 -0.0000000000000000  0.5000000000000000  0.5000000000000000
 -0.0000000000000000  0.0000000000000000  0.0000000000000000
  0.5000000000000000  0.0000000000000000  0.0000000000000000

  0.00000000E+00  0.00000000E+00  0.00000000E+00
  0.00000000E+00  0.00000000E+00  0.00000000E+00
  0.00000000E+00  0.00000000E+00  0.00000000E+00
  0.00000000E+00  0.00000000E+00  0.00000000E+00
  0.00000000E+00  0.00000000E+00  0.00000000E+00
  0.00000000E+00  0.00000000E+00  0.00000000E+00
  0.00000000E+00  0.00000000E+00  0.00000000E+00
  0.00000000E+00  0.00000000E+00  0.00000000E+00
  0.00000000E+00  0.00000000E+00  0.00000000E+00
  0.00000000E+00  0.00000000E+00  0.00000000E+00
  0.00000000E+00  0.00000000E+00  0.00000000E+00
  0.00000000E+00  0.00000000E+00  0.00000000E+00
  0.00000000E+00  0.00000000E+00  0.00000000E+00
  0.00000000E+00  0.00000000E+00  0.00000000E+00
  0.00000000E+00  0.00000000E+00  0.00000000E+00
  0.00000000E+00  0.00000000E+00  0.00000000E+00
