Ni2MnIn                                 
   5.7599999999999998     
     1.0354335397457672    0.0000000000000000    0.0000000000000000
     0.0000000000000000    1.0354335397457672    0.0000000000000000
     0.0000000000000000    0.0000000000000000    1.0354335397457672
   Ni   Mn   In
     8     6     2
Direct
  0.2500000000000000  0.2660066653990043  0.2660066653990043
  0.7500000000000000  0.2660066653990043  0.2660066653990043
  0.2500000000000000  0.7339933346009957  0.2660066653990043
  0.7500000000000000  0.7339933346009957  0.2660066653990043
  0.2500000000000000  0.2660066653990043  0.7339933346009957
  0.7500000000000000  0.2660066653990043  0.7339933346009957
  0.2500000000000000  0.7339933346009957  0.7339933346009957
  0.7500000000000000  0.7339933346009957  0.7339933346009957
  0.5000000000000000  0.5000000000000000  0.0000000000000000
  0.0000000000000000  0.5000000000000000  0.0000000000000000
  0.0000000000000000  0.0000000000000000  0.5000000000000000
  0.5000000000000000  0.0000000000000000  0.5000000000000000
  0.5000000000000000  0.5000000000000000  0.5000000000000000
  0.0000000000000000  0.5000000000000000  0.5000000000000000
  0.0000000000000000  0.0000000000000000  0.0000000000000000
  0.5000000000000000  0.0000000000000000  0.0000000000000000

  0.00000000E+00  0.00000000E+00  0.00000000E+00
  0.00000000E+00  0.00000000E+00  0.00000000E+00
  0.00000000E+00  0.00000000E+00  0.00000000E+00
  0.00000000E+00  0.00000000E+00  0.00000000E+00
  0.00000000E+00  0.00000000E+00  0.00000000E+00
  0.00000000E+00  0.00000000E+00  0.00000000E+00
  0.00000000E+00  0.00000000E+00  0.00000000E+00
  0.00000000E+00  0.00000000E+00  0.00000000E+00
  0.00000000E+00  0.00000000E+00  0.00000000E+00
  0.00000000E+00  0.00000000E+00  0.00000000E+00
  0.00000000E+00  0.00000000E+00  0.00000000E+00
  0.00000000E+00  0.00000000E+00  0.00000000E+00
  0.00000000E+00  0.00000000E+00  0.00000000E+00
  0.00000000E+00  0.00000000E+00  0.00000000E+00
  0.00000000E+00  0.00000000E+00  0.00000000E+00
  0.00000000E+00  0.00000000E+00  0.00000000E+00
