Ni2MnIn                                 
   5.7599999999999998     
     1.0337456677112251    0.0000000000000000    0.0000000000000000
     0.0000000000000000    1.0337456677112251    0.0000000000000000
     0.0000000000000000    0.0000000000000000    1.0337456677112251
   Ni   Mn   In
     8     6     2
Direct
  0.2500114107845306  0.2631960458520197  0.2631960458520197
  0.7499885892154694  0.2631960458520197  0.2631960458520197
  0.2500114107845306  0.7368039541479803  0.2631960458520197
  0.7499885892154694  0.7368039541479803  0.2631960458520197
  0.2500114107845306  0.2631960458520197  0.7368039541479803
  0.7499885892154694  0.2631960458520197  0.7368039541479803
  0.2500114107845306  0.7368039541479803  0.7368039541479803
  0.7499885892154694  0.7368039541479803  0.7368039541479803
  0.5000000000000000  0.5000000000000000  0.0000000000000000
  0.0000000000000000  0.5000000000000000  0.0000000000000000
  0.0000000000000000  0.0000000000000000  0.5000000000000000
  0.5000000000000000  0.0000000000000000  0.5000000000000000
  0.5000000000000000  0.5000000000000000  0.5000000000000000
  0.0000000000000000  0.5000000000000000  0.5000000000000000
  0.0000000000000000  0.0000000000000000  0.0000000000000000
  0.5000000000000000  0.0000000000000000  0.0000000000000000

  0.00000000E+00  0.00000000E+00  0.00000000E+00
  0.00000000E+00  0.00000000E+00  0.00000000E+00
  0.00000000E+00  0.00000000E+00  0.00000000E+00
  0.00000000E+00  0.00000000E+00  0.00000000E+00
  0.00000000E+00  0.00000000E+00  0.00000000E+00
  0.00000000E+00  0.00000000E+00  0.00000000E+00
  0.00000000E+00  0.00000000E+00  0.00000000E+00
  0.00000000E+00  0.00000000E+00  0.00000000E+00
  0.00000000E+00  0.00000000E+00  0.00000000E+00
  0.00000000E+00  0.00000000E+00  0.00000000E+00
  0.00000000E+00  0.00000000E+00  0.00000000E+00
  0.00000000E+00  0.00000000E+00  0.00000000E+00
  0.00000000E+00  0.00000000E+00  0.00000000E+00
  0.00000000E+00  0.00000000E+00  0.00000000E+00
  0.00000000E+00  0.00000000E+00  0.00000000E+00
  0.00000000E+00  0.00000000E+00  0.00000000E+00
