Ni2MnIn                                 
   5.7599999999999998     
     1.0339977372090439    0.0000000000000000    0.0000000000000000
     0.0000000000000000    1.0339977372090439    0.0000000000000000
     0.0000000000000000    0.0000000000000000    1.0339977372090439
   Ni   Mn   In
     8     6     2
Direct
  0.2491866921801648  0.2528017550371670  0.2690103330574652
  0.7508133078198351  0.2528017550371670  0.2690103330574652
  0.2491866921801648  0.7471982449628330  0.2690103330574652
  0.7508133078198351  0.7471982449628330  0.2690103330574652
  0.2491866921801648  0.2528017550371670  0.7309896669425349
  0.7508133078198351  0.2528017550371670  0.7309896669425349
  0.2491866921801648  0.7471982449628330  0.7309896669425349
  0.7508133078198351  0.7471982449628330  0.7309896669425349
  0.5000000000000000  0.0000000000000000  0.0000000000000000
  0.0000000000000000  0.5000000000000000  0.0000000000000000
  0.0000000000000000  0.0000000000000000  0.5000000000000000
  0.5000000000000000  0.0000000000000000  0.5000000000000000
  0.5000000000000000  0.5000000000000000  0.5000000000000000
  0.0000000000000000  0.5000000000000000  0.5000000000000000
  0.0000000000000000  0.0000000000000000  0.0000000000000000
  0.5000000000000000  0.5000000000000000  0.0000000000000000

  0.00000000E+00  0.00000000E+00  0.00000000E+00
  0.00000000E+00  0.00000000E+00  0.00000000E+00
  0.00000000E+00  0.00000000E+00  0.00000000E+00
  0.00000000E+00  0.00000000E+00  0.00000000E+00
  0.00000000E+00  0.00000000E+00  0.00000000E+00
  0.00000000E+00  0.00000000E+00  0.00000000E+00
  0.00000000E+00  0.00000000E+00  0.00000000E+00
  0.00000000E+00  0.00000000E+00  0.00000000E+00
  0.00000000E+00  0.00000000E+00  0.00000000E+00
  0.00000000E+00  0.00000000E+00  0.00000000E+00
  0.00000000E+00  0.00000000E+00  0.00000000E+00
  0.00000000E+00  0.00000000E+00  0.00000000E+00
  0.00000000E+00  0.00000000E+00  0.00000000E+00
  0.00000000E+00  0.00000000E+00  0.00000000E+00
  0.00000000E+00  0.00000000E+00  0.00000000E+00
  0.00000000E+00  0.00000000E+00  0.00000000E+00
