Ni2MnIn                                 
   5.7599999999999998     
     1.0341873400158956    0.0000000000000000    0.0000000000000000
     0.0000000000000000    1.0341873400158956    0.0000000000000000
     0.0000000000000000    0.0000000000000000    1.0341873400158956
   Ni   Mn   In
     8     6     2
Direct
  0.2457516659835406  0.2542483340164594  0.2689739357681447
  0.7542483340164594  0.2542483340164594  0.2689739357681447
  0.2457516659835406  0.7457516659835406  0.2689739357681447
  0.7542483340164594  0.7457516659835406  0.2689739357681447
  0.2457516659835406  0.2542483340164594  0.7310260642318553
  0.7542483340164594  0.2542483340164594  0.7310260642318553
  0.2457516659835406  0.7457516659835406  0.7310260642318553
  0.7542483340164594  0.7457516659835406  0.7310260642318553
  0.5000000000000000  0.0000000000000000  0.0000000000000000
  0.0000000000000000  0.5000000000000000  0.0000000000000000
  0.0000000000000000  0.0000000000000000  0.5000000000000000
  0.5000000000000000  0.0000000000000000  0.5000000000000000
  0.5000000000000000  0.5000000000000000  0.5000000000000000
  0.0000000000000000  0.5000000000000000  0.5000000000000000
  0.0000000000000000  0.0000000000000000  0.0000000000000000
  0.5000000000000000  0.5000000000000000  0.0000000000000000

  0.00000000E+00  0.00000000E+00  0.00000000E+00
  0.00000000E+00  0.00000000E+00  0.00000000E+00
  0.00000000E+00  0.00000000E+00  0.00000000E+00
  0.00000000E+00  0.00000000E+00  0.00000000E+00
  0.00000000E+00  0.00000000E+00  0.00000000E+00
  0.00000000E+00  0.00000000E+00  0.00000000E+00
  0.00000000E+00  0.00000000E+00  0.00000000E+00
  0.00000000E+00  0.00000000E+00  0.00000000E+00
  0.00000000E+00  0.00000000E+00  0.00000000E+00
  0.00000000E+00  0.00000000E+00  0.00000000E+00
  0.00000000E+00  0.00000000E+00  0.00000000E+00
  0.00000000E+00  0.00000000E+00  0.00000000E+00
  0.00000000E+00  0.00000000E+00  0.00000000E+00
  0.00000000E+00  0.00000000E+00  0.00000000E+00
  0.00000000E+00  0.00000000E+00  0.00000000E+00
  0.00000000E+00  0.00000000E+00  0.00000000E+00
