Ni2MnIn                                 
   5.7599999999999998     
     1.0337761407418049    0.0000000000000000    0.0000000000000000
     0.0000000000000000    1.0337761407418049    0.0000000000000000
     0.0000000000000000    0.0000000000000000    1.0337761407418049
   Ni   Mn   In
     8     6     2
Direct
  0.2537304258493620  0.2462694098946585  0.2499721109621618
  0.7462695741506380  0.2462694098946585  0.2499721109621618
  0.2537304258493620  0.7537305901053415  0.2499721109621618
  0.7462695741506380  0.7537305901053415  0.2499721109621618
  0.2537304258493620  0.2462694098946585  0.7500278890378382
  0.7462695741506380  0.2462694098946585  0.7500278890378382
  0.2537304258493620  0.7537305901053415  0.7500278890378382
  0.7462695741506380  0.7537305901053415  0.7500278890378382
  0.5000000000000000  0.0000000000000000  0.0000000000000000
  0.5000000000000000  0.5000000000000000  0.0000000000000000
  0.0000000000000000  0.5000000000000000  0.0000000000000000
  0.0000000000000000  0.0000000000000000  0.5000000000000000
  0.5000000000000000  0.0000000000000000  0.5000000000000000
  0.0000000000000000  0.5000000000000000  0.5000000000000000
  0.0000000000000000  0.0000000000000000  0.0000000000000000
  0.5000000000000000  0.5000000000000000  0.5000000000000000

  0.00000000E+00  0.00000000E+00  0.00000000E+00
  0.00000000E+00  0.00000000E+00  0.00000000E+00
  0.00000000E+00  0.00000000E+00  0.00000000E+00
  0.00000000E+00  0.00000000E+00  0.00000000E+00
  0.00000000E+00  0.00000000E+00  0.00000000E+00
  0.00000000E+00  0.00000000E+00  0.00000000E+00
  0.00000000E+00  0.00000000E+00  0.00000000E+00
  0.00000000E+00  0.00000000E+00  0.00000000E+00
  0.00000000E+00  0.00000000E+00  0.00000000E+00
  0.00000000E+00  0.00000000E+00  0.00000000E+00
  0.00000000E+00  0.00000000E+00  0.00000000E+00
  0.00000000E+00  0.00000000E+00  0.00000000E+00
  0.00000000E+00  0.00000000E+00  0.00000000E+00
  0.00000000E+00  0.00000000E+00  0.00000000E+00
  0.00000000E+00  0.00000000E+00  0.00000000E+00
  0.00000000E+00  0.00000000E+00  0.00000000E+00
