Ni2MnIn                                 
   5.7599999999999998     
     1.0354906303710136    0.0000000000000000    0.0000000000000000
     0.0000000000000000    1.0354906303710136    0.0000000000000000
     0.0000000000000000    0.0000000000000000    1.0354906303710136
   Ni   Mn   In
     8     6     2
Direct
  0.2500000000000000  0.2676433302591903  0.2676433302591903
  0.7500000000000000  0.2676433302591903  0.2676433302591903
  0.2500000000000000  0.7323566697408097  0.2676433302591903
  0.7500000000000000  0.7323566697408097  0.2676433302591903
  0.2500000000000000  0.2676433302591903  0.7323566697408097
  0.7500000000000000  0.2676433302591903  0.7323566697408097
  0.2500000000000000  0.7323566697408097  0.7323566697408097
  0.7500000000000000  0.7323566697408097  0.7323566697408097
  0.5000000000000000  0.5000000000000000  0.0000000000000000
  0.0000000000000000  0.5000000000000000  0.0000000000000000
  0.0000000000000000  0.0000000000000000  0.5000000000000000
  0.5000000000000000  0.0000000000000000  0.5000000000000000
  0.5000000000000000  0.5000000000000000  0.5000000000000000
  0.0000000000000000  0.5000000000000000  0.5000000000000000
  0.0000000000000000  0.0000000000000000  0.0000000000000000
  0.5000000000000000  0.0000000000000000  0.0000000000000000

  0.00000000E+00  0.00000000E+00  0.00000000E+00
  0.00000000E+00  0.00000000E+00  0.00000000E+00
  0.00000000E+00  0.00000000E+00  0.00000000E+00
  0.00000000E+00  0.00000000E+00  0.00000000E+00
  0.00000000E+00  0.00000000E+00  0.00000000E+00
  0.00000000E+00  0.00000000E+00  0.00000000E+00
  0.00000000E+00  0.00000000E+00  0.00000000E+00
  0.00000000E+00  0.00000000E+00  0.00000000E+00
  0.00000000E+00  0.00000000E+00  0.00000000E+00
  0.00000000E+00  0.00000000E+00  0.00000000E+00
  0.00000000E+00  0.00000000E+00  0.00000000E+00
  0.00000000E+00  0.00000000E+00  0.00000000E+00
  0.00000000E+00  0.00000000E+00  0.00000000E+00
  0.00000000E+00  0.00000000E+00  0.00000000E+00
  0.00000000E+00  0.00000000E+00  0.00000000E+00
  0.00000000E+00  0.00000000E+00  0.00000000E+00
