Ni2MnIn                                 
   5.7599999999999998     
     1.0335146343516877    0.0000000000000000    0.0000000000000000
     0.0000000000000000    1.0335146343516877    0.0000000000000000
     0.0000000000000000    0.0000000000000000    1.0335146343516877
   Ni   Mn   In
     8     6     2
Direct
  0.2500000000000000  0.2500000000000000  0.2627929136884362
  0.7500000000000000  0.2500000000000000  0.2627929136884362
  0.2500000000000000  0.7500000000000000  0.2627929136884362
  0.7500000000000000  0.7500000000000000  0.2627929136884362
  0.2500000000000000  0.2500000000000000  0.7372070863115638
  0.7500000000000000  0.2500000000000000  0.7372070863115638
  0.2500000000000000  0.7500000000000000  0.7372070863115638
  0.7500000000000000  0.7500000000000000  0.7372070863115638
  0.5000000000000000  0.0000000000000000  0.0000000000000000
  0.0000000000000000  0.5000000000000000  0.0000000000000000
  0.0000000000000000  0.0000000000000000  0.5000000000000000
  0.5000000000000000  0.0000000000000000  0.5000000000000000
  0.5000000000000000  0.5000000000000000  0.5000000000000000
  0.0000000000000000  0.5000000000000000  0.5000000000000000
  0.0000000000000000  0.0000000000000000  0.0000000000000000
  0.5000000000000000  0.5000000000000000  0.0000000000000000

  0.00000000E+00  0.00000000E+00  0.00000000E+00
  0.00000000E+00  0.00000000E+00  0.00000000E+00
  0.00000000E+00  0.00000000E+00  0.00000000E+00
  0.00000000E+00  0.00000000E+00  0.00000000E+00
  0.00000000E+00  0.00000000E+00  0.00000000E+00
  0.00000000E+00  0.00000000E+00  0.00000000E+00
  0.00000000E+00  0.00000000E+00  0.00000000E+00
  0.00000000E+00  0.00000000E+00  0.00000000E+00
  0.00000000E+00  0.00000000E+00  0.00000000E+00
  0.00000000E+00  0.00000000E+00  0.00000000E+00
  0.00000000E+00  0.00000000E+00  0.00000000E+00
  0.00000000E+00  0.00000000E+00  0.00000000E+00
  0.00000000E+00  0.00000000E+00  0.00000000E+00
  0.00000000E+00  0.00000000E+00  0.00000000E+00
  0.00000000E+00  0.00000000E+00  0.00000000E+00
  0.00000000E+00  0.00000000E+00  0.00000000E+00
