Ni2MnIn                                 
   5.7599999999999998     
     1.0348309469603549    0.0000000000000000    0.0000000000000000
     0.0000000000000000    1.0348309469603549    0.0000000000000000
     0.0000000000000000    0.0000000000000000    1.0348309469603549
   Ni   Mn   In
     8     6     2
Direct
  0.2495583262503018  0.2504416737496982  0.2684330395481851
  0.7504416737496982  0.2504416737496982  0.2684330395481851
  0.2495583262503018  0.7495583262503018  0.2684330395481851
  0.7504416737496982  0.7495583262503018  0.2684330395481851
  0.2495583262503018  0.2504416737496982  0.7315669604518149
  0.7504416737496982  0.2504416737496982  0.7315669604518149
  0.2495583262503018  0.7495583262503018  0.7315669604518149
  0.7504416737496982  0.7495583262503018  0.7315669604518149
  0.5000000000000000  0.0000000000000000  0.0000000000000000
  0.0000000000000000  0.5000000000000000  0.0000000000000000
  0.0000000000000000  0.0000000000000000  0.5000000000000000
  0.5000000000000000  0.0000000000000000  0.5000000000000000
  0.5000000000000000  0.5000000000000000  0.5000000000000000
  0.0000000000000000  0.5000000000000000  0.5000000000000000
  0.0000000000000000  0.0000000000000000  0.0000000000000000
  0.5000000000000000  0.5000000000000000  0.0000000000000000

  0.00000000E+00  0.00000000E+00  0.00000000E+00
  0.00000000E+00  0.00000000E+00  0.00000000E+00
  0.00000000E+00  0.00000000E+00  0.00000000E+00
  0.00000000E+00  0.00000000E+00  0.00000000E+00
  0.00000000E+00  0.00000000E+00  0.00000000E+00
  0.00000000E+00  0.00000000E+00  0.00000000E+00
  0.00000000E+00  0.00000000E+00  0.00000000E+00
  0.00000000E+00  0.00000000E+00  0.00000000E+00
  0.00000000E+00  0.00000000E+00  0.00000000E+00
  0.00000000E+00  0.00000000E+00  0.00000000E+00
  0.00000000E+00  0.00000000E+00  0.00000000E+00
  0.00000000E+00  0.00000000E+00  0.00000000E+00
  0.00000000E+00  0.00000000E+00  0.00000000E+00
  0.00000000E+00  0.00000000E+00  0.00000000E+00
  0.00000000E+00  0.00000000E+00  0.00000000E+00
  0.00000000E+00  0.00000000E+00  0.00000000E+00
