Ni2MnIn                                 
   5.7599999999999998     
     1.0369898060621314    0.0000000000000000    0.0000000000000000
     0.0000000000000000    1.0369898060621314    0.0000000000000000
     0.0000000000000000    0.0000000000000000    1.0369898060621314
   Ni   Mn   In
     8     6     2
Direct
  0.2499650741909324  0.2641201856732630  0.2670713527870815
  0.7500349258090676  0.2641201856732630  0.2670713527870815
  0.2499650741909324  0.7358798143267370  0.2670713527870815
  0.7500349258090676  0.7358798143267370  0.2670713527870815
  0.2499650741909324  0.2641201856732630  0.7329286472129185
  0.7500349258090676  0.2641201856732630  0.7329286472129185
  0.2499650741909324  0.7358798143267370  0.7329286472129185
  0.7500349258090676  0.7358798143267370  0.7329286472129185
  0.5000000000000000  0.5000000000000000 -0.0000000000000000
  0.0000000000000000  0.5000000000000000 -0.0000000000000000
  0.0000000000000000  0.0000000000000000  0.5000000000000000
  0.5000000000000000  0.0000000000000000  0.5000000000000000
  0.5000000000000000  0.5000000000000000  0.5000000000000000
  0.0000000000000000  0.5000000000000000  0.5000000000000000
  0.0000000000000000  0.0000000000000000 -0.0000000000000000
  0.5000000000000000  0.0000000000000000 -0.0000000000000000

  0.00000000E+00  0.00000000E+00  0.00000000E+00
  0.00000000E+00  0.00000000E+00  0.00000000E+00
  0.00000000E+00  0.00000000E+00  0.00000000E+00
  0.00000000E+00  0.00000000E+00  0.00000000E+00
  0.00000000E+00  0.00000000E+00  0.00000000E+00
  0.00000000E+00  0.00000000E+00  0.00000000E+00
  0.00000000E+00  0.00000000E+00  0.00000000E+00
  0.00000000E+00  0.00000000E+00  0.00000000E+00
  0.00000000E+00  0.00000000E+00  0.00000000E+00
  0.00000000E+00  0.00000000E+00  0.00000000E+00
  0.00000000E+00  0.00000000E+00  0.00000000E+00
  0.00000000E+00  0.00000000E+00  0.00000000E+00
  0.00000000E+00  0.00000000E+00  0.00000000E+00
  0.00000000E+00  0.00000000E+00  0.00000000E+00
  0.00000000E+00  0.00000000E+00  0.00000000E+00
  0.00000000E+00  0.00000000E+00  0.00000000E+00
