Ni2MnIn                                 
   5.7599999999999998     
     1.0350552274517053    0.0000000000000000    0.0000000000000000
     0.0000000000000000    1.0350552274517053    0.0000000000000000
     0.0000000000000000    0.0000000000000000    1.0350552274517053
   Ni   Mn   In
     8     6     2
Direct
  0.2532676997224144  0.2689533819893484  0.2653478610652016
  0.7467323002775856  0.2689533819893484  0.2653478610652016
  0.2532676997224144  0.7310466180106516  0.2653478610652016
  0.7467323002775856  0.7310466180106516  0.2653478610652016
  0.2532676997224144  0.2689533819893484  0.7346521389347984
  0.7467323002775856  0.2689533819893484  0.7346521389347984
  0.2532676997224144  0.7310466180106516  0.7346521389347984
  0.7467323002775856  0.7310466180106516  0.7346521389347984
  0.5000000000000000  0.5000000000000000  0.0000000000000000
  0.0000000000000000  0.5000000000000000  0.0000000000000000
  0.0000000000000000  0.0000000000000000  0.5000000000000000
  0.5000000000000000  0.0000000000000000  0.5000000000000000
  0.5000000000000000  0.5000000000000000  0.5000000000000000
  0.0000000000000000  0.5000000000000000  0.5000000000000000
  0.0000000000000000  0.0000000000000000  0.0000000000000000
  0.5000000000000000  0.0000000000000000  0.0000000000000000

  0.00000000E+00  0.00000000E+00  0.00000000E+00
  0.00000000E+00  0.00000000E+00  0.00000000E+00
  0.00000000E+00  0.00000000E+00  0.00000000E+00
  0.00000000E+00  0.00000000E+00  0.00000000E+00
  0.00000000E+00  0.00000000E+00  0.00000000E+00
  0.00000000E+00  0.00000000E+00  0.00000000E+00
  0.00000000E+00  0.00000000E+00  0.00000000E+00
  0.00000000E+00  0.00000000E+00  0.00000000E+00
  0.00000000E+00  0.00000000E+00  0.00000000E+00
  0.00000000E+00  0.00000000E+00  0.00000000E+00
  0.00000000E+00  0.00000000E+00  0.00000000E+00
  0.00000000E+00  0.00000000E+00  0.00000000E+00
  0.00000000E+00  0.00000000E+00  0.00000000E+00
  0.00000000E+00  0.00000000E+00  0.00000000E+00
  0.00000000E+00  0.00000000E+00  0.00000000E+00
  0.00000000E+00  0.00000000E+00  0.00000000E+00
