Ni2MnIn                                 
   5.7599999999999998     
     1.0345102553828325    0.0000000000000000    0.0000000000000000
     0.0000000000000000    1.0345102553828325    0.0000000000000000
     0.0000000000000000    0.0000000000000000    1.0345102553828325
   Ni   Mn   In
     8     6     2
Direct
  0.2499825156615165  0.2499931482795233  0.2713576898504055
  0.7500174843384835  0.2499931482795233  0.2713576898504055
  0.2499825156615165  0.7500068517204767  0.2713576898504055
  0.7500174843384835  0.7500068517204767  0.2713576898504055
  0.2499825156615165  0.2499931482795233  0.7286423101495945
  0.7500174843384835  0.2499931482795233  0.7286423101495945
  0.2499825156615165  0.7500068517204767  0.7286423101495945
  0.7500174843384835  0.7500068517204767  0.7286423101495945
  0.5000000000000000  0.0000000000000000 -0.0000000000000000
 -0.0000000000000000  0.5000000000000000 -0.0000000000000000
 -0.0000000000000000  0.0000000000000000  0.5000000000000000
  0.5000000000000000  0.0000000000000000  0.5000000000000000
  0.5000000000000000  0.5000000000000000  0.5000000000000000
 -0.0000000000000000  0.5000000000000000  0.5000000000000000
 -0.0000000000000000  0.0000000000000000 -0.0000000000000000
  0.5000000000000000  0.5000000000000000 -0.0000000000000000

  0.00000000E+00  0.00000000E+00  0.00000000E+00
  0.00000000E+00  0.00000000E+00  0.00000000E+00
  0.00000000E+00  0.00000000E+00  0.00000000E+00
  0.00000000E+00  0.00000000E+00  0.00000000E+00
  0.00000000E+00  0.00000000E+00  0.00000000E+00
  0.00000000E+00  0.00000000E+00  0.00000000E+00
  0.00000000E+00  0.00000000E+00  0.00000000E+00
  0.00000000E+00  0.00000000E+00  0.00000000E+00
  0.00000000E+00  0.00000000E+00  0.00000000E+00
  0.00000000E+00  0.00000000E+00  0.00000000E+00
  0.00000000E+00  0.00000000E+00  0.00000000E+00
  0.00000000E+00  0.00000000E+00  0.00000000E+00
  0.00000000E+00  0.00000000E+00  0.00000000E+00
  0.00000000E+00  0.00000000E+00  0.00000000E+00
  0.00000000E+00  0.00000000E+00  0.00000000E+00
  0.00000000E+00  0.00000000E+00  0.00000000E+00
