Ni2MnIn                                 
   5.7599999999999998     
     1.0350165024217903    0.0000000000000000    0.0000000000000000
     0.0000000000000000    1.0350165024217903    0.0000000000000000
     0.0000000000000000    0.0000000000000000    1.0350165024217903
   Ni   Mn   In
     8     6     2
Direct
  0.2457383834978728  0.2595023509459224  0.2692956347318542
  0.7542616165021272  0.2595023509459224  0.2692956347318542
  0.2457383834978728  0.7404976490540776  0.2692956347318542
  0.7542616165021272  0.7404976490540776  0.2692956347318542
  0.2457383834978728  0.2595023509459224  0.7307043652681458
  0.7542616165021272  0.2595023509459224  0.7307043652681458
  0.2457383834978728  0.7404976490540776  0.7307043652681458
  0.7542616165021272  0.7404976490540776  0.7307043652681458
  0.5000000000000000  0.5000000000000000  0.0000000000000000
  0.0000000000000000  0.5000000000000000  0.0000000000000000
  0.0000000000000000  0.0000000000000000  0.5000000000000000
  0.5000000000000000  0.0000000000000000  0.5000000000000000
  0.5000000000000000  0.5000000000000000  0.5000000000000000
  0.0000000000000000  0.5000000000000000  0.5000000000000000
  0.0000000000000000  0.0000000000000000  0.0000000000000000
  0.5000000000000000  0.0000000000000000  0.0000000000000000

  0.00000000E+00  0.00000000E+00  0.00000000E+00
  0.00000000E+00  0.00000000E+00  0.00000000E+00
  0.00000000E+00  0.00000000E+00  0.00000000E+00
  0.00000000E+00  0.00000000E+00  0.00000000E+00
  0.00000000E+00  0.00000000E+00  0.00000000E+00
  0.00000000E+00  0.00000000E+00  0.00000000E+00
  0.00000000E+00  0.00000000E+00  0.00000000E+00
  0.00000000E+00  0.00000000E+00  0.00000000E+00
  0.00000000E+00  0.00000000E+00  0.00000000E+00
  0.00000000E+00  0.00000000E+00  0.00000000E+00
  0.00000000E+00  0.00000000E+00  0.00000000E+00
  0.00000000E+00  0.00000000E+00  0.00000000E+00
  0.00000000E+00  0.00000000E+00  0.00000000E+00
  0.00000000E+00  0.00000000E+00  0.00000000E+00
  0.00000000E+00  0.00000000E+00  0.00000000E+00
  0.00000000E+00  0.00000000E+00  0.00000000E+00
