Ni2MnIn                                 
   5.7599999999999998     
     1.0369648920634142    0.0000000000000000    0.0000000000000000
     0.0000000000000000    1.0369648920634142    0.0000000000000000
     0.0000000000000000    0.0000000000000000    1.0369648920634142
   Ni   Mn   In
     8     6     2
Direct
  0.2500349977103681  0.2670688328827928  0.2641182337221780
  0.7499650022896319  0.2670688328827928  0.2641182337221780
  0.2500349977103681  0.7329311671172072  0.2641182337221780
  0.7499650022896319  0.7329311671172072  0.2641182337221780
  0.2500349977103681  0.2670688328827928  0.7358817662778220
  0.7499650022896319  0.2670688328827928  0.7358817662778220
  0.2500349977103681  0.7329311671172072  0.7358817662778220
  0.7499650022896319  0.7329311671172072  0.7358817662778220
  0.5000000000000000  0.5000000000000000  0.0000000000000000
  0.0000000000000000  0.5000000000000000  0.0000000000000000
  0.0000000000000000  0.0000000000000000  0.5000000000000000
  0.5000000000000000  0.0000000000000000  0.5000000000000000
  0.5000000000000000  0.5000000000000000  0.5000000000000000
  0.0000000000000000  0.5000000000000000  0.5000000000000000
  0.0000000000000000  0.0000000000000000  0.0000000000000000
  0.5000000000000000  0.0000000000000000  0.0000000000000000

  0.00000000E+00  0.00000000E+00  0.00000000E+00
  0.00000000E+00  0.00000000E+00  0.00000000E+00
  0.00000000E+00  0.00000000E+00  0.00000000E+00
  0.00000000E+00  0.00000000E+00  0.00000000E+00
  0.00000000E+00  0.00000000E+00  0.00000000E+00
  0.00000000E+00  0.00000000E+00  0.00000000E+00
  0.00000000E+00  0.00000000E+00  0.00000000E+00
  0.00000000E+00  0.00000000E+00  0.00000000E+00
  0.00000000E+00  0.00000000E+00  0.00000000E+00
  0.00000000E+00  0.00000000E+00  0.00000000E+00
  0.00000000E+00  0.00000000E+00  0.00000000E+00
  0.00000000E+00  0.00000000E+00  0.00000000E+00
  0.00000000E+00  0.00000000E+00  0.00000000E+00
  0.00000000E+00  0.00000000E+00  0.00000000E+00
  0.00000000E+00  0.00000000E+00  0.00000000E+00
  0.00000000E+00  0.00000000E+00  0.00000000E+00
