Ni2MnIn                                 
   5.7599999999999998     
     1.0327350424066879    0.0000000000000000    0.0000000000000000
     0.0000000000000000    1.0327350424066879    0.0000000000000000
     0.0000000000000000    0.0000000000000000    1.0327350424066879
   Ni   Mn   In
     8     6     2
Direct
  0.2559297232929438  0.2440702767070562  0.2627545575295329
  0.7440702767070562  0.2440702767070562  0.2627545575295329
  0.2559297232929438  0.7559297232929438  0.2627545575295329
  0.7440702767070562  0.7559297232929438  0.2627545575295329
  0.2559297232929438  0.2440702767070562  0.7372454424704671
  0.7440702767070562  0.2440702767070562  0.7372454424704671
  0.2559297232929438  0.7559297232929438  0.7372454424704671
  0.7440702767070562  0.7559297232929438  0.7372454424704671
  0.5000000000000000  0.0000000000000000  0.0000000000000000
  0.0000000000000000  0.5000000000000000  0.0000000000000000
  0.0000000000000000  0.0000000000000000  0.5000000000000000
  0.5000000000000000  0.0000000000000000  0.5000000000000000
  0.5000000000000000  0.5000000000000000  0.5000000000000000
  0.0000000000000000  0.5000000000000000  0.5000000000000000
  0.0000000000000000  0.0000000000000000  0.0000000000000000
  0.5000000000000000  0.5000000000000000  0.0000000000000000

  0.00000000E+00  0.00000000E+00  0.00000000E+00
  0.00000000E+00  0.00000000E+00  0.00000000E+00
  0.00000000E+00  0.00000000E+00  0.00000000E+00
  0.00000000E+00  0.00000000E+00  0.00000000E+00
  0.00000000E+00  0.00000000E+00  0.00000000E+00
  0.00000000E+00  0.00000000E+00  0.00000000E+00
  0.00000000E+00  0.00000000E+00  0.00000000E+00
  0.00000000E+00  0.00000000E+00  0.00000000E+00
  0.00000000E+00  0.00000000E+00  0.00000000E+00
  0.00000000E+00  0.00000000E+00  0.00000000E+00
  0.00000000E+00  0.00000000E+00  0.00000000E+00
  0.00000000E+00  0.00000000E+00  0.00000000E+00
  0.00000000E+00  0.00000000E+00  0.00000000E+00
  0.00000000E+00  0.00000000E+00  0.00000000E+00
  0.00000000E+00  0.00000000E+00  0.00000000E+00
  0.00000000E+00  0.00000000E+00  0.00000000E+00
