Ni2MnIn                                 
   5.7599999999999998     
     1.0362744667404584    0.0000000000000000    0.0000000000000000
     0.0000000000000000    1.0362744667404584    0.0000000000000000
     0.0000000000000000    0.0000000000000000    1.0362744667404584
   Ni   Mn   In
     8     6     2
Direct
  0.2500000000000000  0.2666509822773762  0.2675015620628329
  0.7500000000000000  0.2666509822773762  0.2675015620628329
  0.2500000000000000  0.7333490177226238  0.2675015620628329
  0.7500000000000000  0.7333490177226238  0.2675015620628329
  0.2500000000000000  0.2666509822773762  0.7324984379371671
  0.7500000000000000  0.2666509822773762  0.7324984379371671
  0.2500000000000000  0.7333490177226238  0.7324984379371671
  0.7500000000000000  0.7333490177226238  0.7324984379371671
  0.5000000000000000  0.5000000000000000  0.0000000000000000
  0.0000000000000000  0.5000000000000000  0.0000000000000000
  0.0000000000000000  0.0000000000000000  0.5000000000000000
  0.5000000000000000  0.0000000000000000  0.5000000000000000
  0.5000000000000000  0.5000000000000000  0.5000000000000000
  0.0000000000000000  0.5000000000000000  0.5000000000000000
  0.0000000000000000  0.0000000000000000  0.0000000000000000
  0.5000000000000000  0.0000000000000000  0.0000000000000000

  0.00000000E+00  0.00000000E+00  0.00000000E+00
  0.00000000E+00  0.00000000E+00  0.00000000E+00
  0.00000000E+00  0.00000000E+00  0.00000000E+00
  0.00000000E+00  0.00000000E+00  0.00000000E+00
  0.00000000E+00  0.00000000E+00  0.00000000E+00
  0.00000000E+00  0.00000000E+00  0.00000000E+00
  0.00000000E+00  0.00000000E+00  0.00000000E+00
  0.00000000E+00  0.00000000E+00  0.00000000E+00
  0.00000000E+00  0.00000000E+00  0.00000000E+00
  0.00000000E+00  0.00000000E+00  0.00000000E+00
  0.00000000E+00  0.00000000E+00  0.00000000E+00
  0.00000000E+00  0.00000000E+00  0.00000000E+00
  0.00000000E+00  0.00000000E+00  0.00000000E+00
  0.00000000E+00  0.00000000E+00  0.00000000E+00
  0.00000000E+00  0.00000000E+00  0.00000000E+00
  0.00000000E+00  0.00000000E+00  0.00000000E+00
