Ni2MnIn                                 
   5.7599999999999998     
     1.0322117229629881    0.0000000000000000    0.0000000000000000
     0.0000000000000000    1.0322117229629881    0.0000000000000000
     0.0000000000000000    0.0000000000000000    1.0322117229629881
   Ni   Mn   In
     8     6     2
Direct
  0.2500000000000000  0.2500000000000000  0.2667418544132687
  0.7500000000000000  0.2500000000000000  0.2667418544132687
  0.2500000000000000  0.7500000000000000  0.2667418544132687
  0.7500000000000000  0.7500000000000000  0.2667418544132687
  0.2500000000000000  0.2500000000000000  0.7332581455867313
  0.7500000000000000  0.2500000000000000  0.7332581455867313
  0.2500000000000000  0.7500000000000000  0.7332581455867313
  0.7500000000000000  0.7500000000000000  0.7332581455867313
  0.5000000000000000  0.0000000000000000  0.0000000000000000
  0.0000000000000000  0.5000000000000000  0.0000000000000000
  0.0000000000000000  0.0000000000000000  0.5000000000000000
  0.5000000000000000  0.0000000000000000  0.5000000000000000
  0.5000000000000000  0.5000000000000000  0.5000000000000000
  0.0000000000000000  0.5000000000000000  0.5000000000000000
  0.0000000000000000  0.0000000000000000  0.0000000000000000
  0.5000000000000000  0.5000000000000000  0.0000000000000000

  0.00000000E+00  0.00000000E+00  0.00000000E+00
  0.00000000E+00  0.00000000E+00  0.00000000E+00
  0.00000000E+00  0.00000000E+00  0.00000000E+00
  0.00000000E+00  0.00000000E+00  0.00000000E+00
  0.00000000E+00  0.00000000E+00  0.00000000E+00
  0.00000000E+00  0.00000000E+00  0.00000000E+00
  0.00000000E+00  0.00000000E+00  0.00000000E+00
  0.00000000E+00  0.00000000E+00  0.00000000E+00
  0.00000000E+00  0.00000000E+00  0.00000000E+00
  0.00000000E+00  0.00000000E+00  0.00000000E+00
  0.00000000E+00  0.00000000E+00  0.00000000E+00
  0.00000000E+00  0.00000000E+00  0.00000000E+00
  0.00000000E+00  0.00000000E+00  0.00000000E+00
  0.00000000E+00  0.00000000E+00  0.00000000E+00
  0.00000000E+00  0.00000000E+00  0.00000000E+00
  0.00000000E+00  0.00000000E+00  0.00000000E+00
