Ni2MnIn                                 
   5.7599999999999998     
     1.0345102554398906    0.0000000000000000    0.0000000000000000
     0.0000000000000000    1.0345102554398906    0.0000000000000000
     0.0000000000000000    0.0000000000000000    1.0345102554398906
   Ni   Mn   In
     8     6     2
Direct
  0.2499825156485593  0.2499931481393018  0.2713576889189959
  0.7500174843514407  0.2499931481393018  0.2713576889189959
  0.2499825156485593  0.7500068518606982  0.2713576889189959
  0.7500174843514407  0.7500068518606982  0.2713576889189959
  0.2499825156485593  0.2499931481393018  0.7286423110810041
  0.7500174843514407  0.2499931481393018  0.7286423110810041
  0.2499825156485593  0.7500068518606982  0.7286423110810041
  0.7500174843514407  0.7500068518606982  0.7286423110810041
  0.5000000000000000  0.0000000000000000  0.0000000000000000
  0.0000000000000000  0.5000000000000000  0.0000000000000000
  0.0000000000000000  0.0000000000000000  0.5000000000000000
  0.5000000000000000  0.0000000000000000  0.5000000000000000
  0.5000000000000000  0.5000000000000000  0.5000000000000000
  0.0000000000000000  0.5000000000000000  0.5000000000000000
  0.0000000000000000  0.0000000000000000  0.0000000000000000
  0.5000000000000000  0.5000000000000000  0.0000000000000000

  0.00000000E+00  0.00000000E+00  0.00000000E+00
  0.00000000E+00  0.00000000E+00  0.00000000E+00
  0.00000000E+00  0.00000000E+00  0.00000000E+00
  0.00000000E+00  0.00000000E+00  0.00000000E+00
  0.00000000E+00  0.00000000E+00  0.00000000E+00
  0.00000000E+00  0.00000000E+00  0.00000000E+00
  0.00000000E+00  0.00000000E+00  0.00000000E+00
  0.00000000E+00  0.00000000E+00  0.00000000E+00
  0.00000000E+00  0.00000000E+00  0.00000000E+00
  0.00000000E+00  0.00000000E+00  0.00000000E+00
  0.00000000E+00  0.00000000E+00  0.00000000E+00
  0.00000000E+00  0.00000000E+00  0.00000000E+00
  0.00000000E+00  0.00000000E+00  0.00000000E+00
  0.00000000E+00  0.00000000E+00  0.00000000E+00
  0.00000000E+00  0.00000000E+00  0.00000000E+00
  0.00000000E+00  0.00000000E+00  0.00000000E+00
