Ni2MnIn                                 
   5.7599999999999998     
     1.0363144225356038    0.0000000000000000    0.0000000000000000
     0.0000000000000000    1.0363144225356038    0.0000000000000000
     0.0000000000000000    0.0000000000000000    1.0363144225356038
   Ni   Mn   In
     8     6     2
Direct
  0.2500000000000000  0.2500000000000000  0.2694090150304760
  0.7500000000000000  0.2500000000000000  0.2694090150304760
  0.2500000000000000  0.7500000000000000  0.2694090150304760
  0.7500000000000000  0.7500000000000000  0.2694090150304760
  0.2500000000000000  0.2500000000000000  0.7305909849695240
  0.7500000000000000  0.2500000000000000  0.7305909849695240
  0.2500000000000000  0.7500000000000000  0.7305909849695240
  0.7500000000000000  0.7500000000000000  0.7305909849695240
  0.5000000000000000  0.0000000000000000  0.0000000000000000
  0.0000000000000000  0.5000000000000000  0.0000000000000000
  0.0000000000000000  0.0000000000000000  0.5000000000000000
  0.5000000000000000  0.0000000000000000  0.5000000000000000
  0.5000000000000000  0.5000000000000000  0.5000000000000000
  0.0000000000000000  0.5000000000000000  0.5000000000000000
  0.0000000000000000  0.0000000000000000  0.0000000000000000
  0.5000000000000000  0.5000000000000000  0.0000000000000000

  0.00000000E+00  0.00000000E+00  0.00000000E+00
  0.00000000E+00  0.00000000E+00  0.00000000E+00
  0.00000000E+00  0.00000000E+00  0.00000000E+00
  0.00000000E+00  0.00000000E+00  0.00000000E+00
  0.00000000E+00  0.00000000E+00  0.00000000E+00
  0.00000000E+00  0.00000000E+00  0.00000000E+00
  0.00000000E+00  0.00000000E+00  0.00000000E+00
  0.00000000E+00  0.00000000E+00  0.00000000E+00
  0.00000000E+00  0.00000000E+00  0.00000000E+00
  0.00000000E+00  0.00000000E+00  0.00000000E+00
  0.00000000E+00  0.00000000E+00  0.00000000E+00
  0.00000000E+00  0.00000000E+00  0.00000000E+00
  0.00000000E+00  0.00000000E+00  0.00000000E+00
  0.00000000E+00  0.00000000E+00  0.00000000E+00
  0.00000000E+00  0.00000000E+00  0.00000000E+00
  0.00000000E+00  0.00000000E+00  0.00000000E+00
