Ni2MnIn                                 
   5.7599999999999998     
     1.0337644429171025    0.0000000000000000    0.0000000000000000
     0.0000000000000000    1.0337644429171025    0.0000000000000000
     0.0000000000000000    0.0000000000000000    1.0337644429171025
   Ni   Mn   In
     8     6     2
Direct
  0.2490192384578248  0.2509807615421751  0.2685139247496842
  0.7509807615421752  0.2509807615421751  0.2685139247496842
  0.2490192384578248  0.7490192384578248  0.2685139247496842
  0.7509807615421752  0.7490192384578248  0.2685139247496842
  0.2490192384578248  0.2509807615421751  0.7314860752503158
  0.7509807615421752  0.2509807615421751  0.7314860752503158
  0.2490192384578248  0.7490192384578248  0.7314860752503158
  0.7509807615421752  0.7490192384578248  0.7314860752503158
  0.5000000000000000  0.0000000000000000  0.0000000000000000
  0.0000000000000000  0.5000000000000000  0.0000000000000000
  0.0000000000000000  0.0000000000000000  0.5000000000000000
  0.5000000000000000  0.0000000000000000  0.5000000000000000
  0.5000000000000000  0.5000000000000000  0.5000000000000000
  0.0000000000000000  0.5000000000000000  0.5000000000000000
  0.0000000000000000  0.0000000000000000  0.0000000000000000
  0.5000000000000000  0.5000000000000000  0.0000000000000000

  0.00000000E+00  0.00000000E+00  0.00000000E+00
  0.00000000E+00  0.00000000E+00  0.00000000E+00
  0.00000000E+00  0.00000000E+00  0.00000000E+00
  0.00000000E+00  0.00000000E+00  0.00000000E+00
  0.00000000E+00  0.00000000E+00  0.00000000E+00
  0.00000000E+00  0.00000000E+00  0.00000000E+00
  0.00000000E+00  0.00000000E+00  0.00000000E+00
  0.00000000E+00  0.00000000E+00  0.00000000E+00
  0.00000000E+00  0.00000000E+00  0.00000000E+00
  0.00000000E+00  0.00000000E+00  0.00000000E+00
  0.00000000E+00  0.00000000E+00  0.00000000E+00
  0.00000000E+00  0.00000000E+00  0.00000000E+00
  0.00000000E+00  0.00000000E+00  0.00000000E+00
  0.00000000E+00  0.00000000E+00  0.00000000E+00
  0.00000000E+00  0.00000000E+00  0.00000000E+00
  0.00000000E+00  0.00000000E+00  0.00000000E+00
