Ni2MnIn                                 
   5.7599999999999998     
     1.0333867953237581    0.0000000000000000    0.0000000000000000
     0.0000000000000000    1.0333867953237581    0.0000000000000000
     0.0000000000000000    0.0000000000000000    1.0333867953237581
   Ni   Mn   In
     8     6     2
Direct
  0.2550832855147931  0.2449167144852069  0.2676435227272194
  0.7449167144852069  0.2449167144852069  0.2676435227272194
  0.2550832855147931  0.7550832855147931  0.2676435227272194
  0.7449167144852069  0.7550832855147931  0.2676435227272194
  0.2550832855147931  0.2449167144852069  0.7323564772727806
  0.7449167144852069  0.2449167144852069  0.7323564772727806
  0.2550832855147931  0.7550832855147931  0.7323564772727806
  0.7449167144852069  0.7550832855147931  0.7323564772727806
  0.5000000000000000  0.0000000000000000  0.0000000000000000
  0.0000000000000000  0.5000000000000000  0.0000000000000000
  0.0000000000000000  0.0000000000000000  0.5000000000000000
  0.5000000000000000  0.0000000000000000  0.5000000000000000
  0.5000000000000000  0.5000000000000000  0.5000000000000000
  0.0000000000000000  0.5000000000000000  0.5000000000000000
  0.0000000000000000  0.0000000000000000  0.0000000000000000
  0.5000000000000000  0.5000000000000000  0.0000000000000000

  0.00000000E+00  0.00000000E+00  0.00000000E+00
  0.00000000E+00  0.00000000E+00  0.00000000E+00
  0.00000000E+00  0.00000000E+00  0.00000000E+00
  0.00000000E+00  0.00000000E+00  0.00000000E+00
  0.00000000E+00  0.00000000E+00  0.00000000E+00
  0.00000000E+00  0.00000000E+00  0.00000000E+00
  0.00000000E+00  0.00000000E+00  0.00000000E+00
  0.00000000E+00  0.00000000E+00  0.00000000E+00
  0.00000000E+00  0.00000000E+00  0.00000000E+00
  0.00000000E+00  0.00000000E+00  0.00000000E+00
  0.00000000E+00  0.00000000E+00  0.00000000E+00
  0.00000000E+00  0.00000000E+00  0.00000000E+00
  0.00000000E+00  0.00000000E+00  0.00000000E+00
  0.00000000E+00  0.00000000E+00  0.00000000E+00
  0.00000000E+00  0.00000000E+00  0.00000000E+00
  0.00000000E+00  0.00000000E+00  0.00000000E+00
