Ni2MnIn                                 
   5.7599999999999998     
     1.0362563886349885    0.0000000000000000    0.0000000000000000
     0.0000000000000000    1.0362563886349885    0.0000000000000000
     0.0000000000000000    0.0000000000000000    1.0362563886349885
   Ni   Mn   In
     8     6     2
Direct
  0.2463819741142146  0.2504967078106262  0.2504967078106262
  0.7536180258857854  0.2504967078106262  0.2504967078106262
  0.2463819741142146  0.7495032921893738  0.2504967078106262
  0.7536180258857854  0.7495032921893738  0.2504967078106262
  0.2463819741142146  0.2504967078106262  0.7495032921893738
  0.7536180258857854  0.2504967078106262  0.7495032921893738
  0.2463819741142146  0.7495032921893738  0.7495032921893738
  0.7536180258857854  0.7495032921893738  0.7495032921893738
  0.5000000000000000  0.0000000000000000  0.0000000000000000
  0.5000000000000000  0.5000000000000000  0.0000000000000000
  0.0000000000000000  0.5000000000000000  0.0000000000000000
  0.0000000000000000  0.0000000000000000  0.5000000000000000
  0.5000000000000000  0.0000000000000000  0.5000000000000000
  0.0000000000000000  0.5000000000000000  0.5000000000000000
  0.0000000000000000  0.0000000000000000  0.0000000000000000
  0.5000000000000000  0.5000000000000000  0.5000000000000000

  0.00000000E+00  0.00000000E+00  0.00000000E+00
  0.00000000E+00  0.00000000E+00  0.00000000E+00
  0.00000000E+00  0.00000000E+00  0.00000000E+00
  0.00000000E+00  0.00000000E+00  0.00000000E+00
  0.00000000E+00  0.00000000E+00  0.00000000E+00
  0.00000000E+00  0.00000000E+00  0.00000000E+00
  0.00000000E+00  0.00000000E+00  0.00000000E+00
  0.00000000E+00  0.00000000E+00  0.00000000E+00
  0.00000000E+00  0.00000000E+00  0.00000000E+00
  0.00000000E+00  0.00000000E+00  0.00000000E+00
  0.00000000E+00  0.00000000E+00  0.00000000E+00
  0.00000000E+00  0.00000000E+00  0.00000000E+00
  0.00000000E+00  0.00000000E+00  0.00000000E+00
  0.00000000E+00  0.00000000E+00  0.00000000E+00
  0.00000000E+00  0.00000000E+00  0.00000000E+00
  0.00000000E+00  0.00000000E+00  0.00000000E+00
